; DUP3 SSTORE DUP1 SWAP2 POP POP => SWAP1 SWAP2 SSTORE
(set-option :produce-proofs true)
; 
(set-info :status unknown)
(declare-fun storage_t ((_ BitVec 256) (_ BitVec 256) (_ BitVec 256) (_ BitVec 256) Int (_ BitVec 256)) (_ BitVec 256))
(declare-fun storage_s ((_ BitVec 256) (_ BitVec 256) (_ BitVec 256) (_ BitVec 256) Int (_ BitVec 256)) (_ BitVec 256))
(declare-fun exc_halt_t (Int) Bool)
(declare-fun exc_halt_s (Int) Bool)
(declare-fun stack_t ((_ BitVec 256) (_ BitVec 256) (_ BitVec 256) (_ BitVec 256) Int (_ BitVec 6)) (_ BitVec 256))
(declare-fun stack_s ((_ BitVec 256) (_ BitVec 256) (_ BitVec 256) (_ BitVec 256) Int (_ BitVec 6)) (_ BitVec 256))
(declare-fun sc_t (Int) (_ BitVec 6))
(declare-fun sc_s (Int) (_ BitVec 6))
(declare-fun used_gas_t ((_ BitVec 256) (_ BitVec 256) (_ BitVec 256) (_ BitVec 256) Int) Int)
(declare-fun used_gas_s ((_ BitVec 256) (_ BitVec 256) (_ BitVec 256) (_ BitVec 256) Int) Int)
(assert
 (exists ((x_0 (_ BitVec 256)) (x_1 (_ BitVec 256)) (x_2 (_ BitVec 256)) (x_SSTORE_0 (_ BitVec 256)) )(let (($x236 (forall ((w (_ BitVec 256)) )(let ((?x10735 (storage_t x_0 x_1 x_2 x_SSTORE_0 3 w)))
 (let ((?x3143 (storage_s x_0 x_1 x_2 x_SSTORE_0 6 w)))
 (= ?x3143 ?x10735))))
 ))
 (let (($x3614 (exc_halt_t 3)))
 (let (($x772 (exc_halt_s 6)))
 (let (($x10291 (= $x772 $x3614)))
 (let (($x10866 (forall ((n (_ BitVec 6)) )(let ((?x7242 (stack_t x_0 x_1 x_2 x_SSTORE_0 3 n)))
 (let ((?x5593 (stack_s x_0 x_1 x_2 x_SSTORE_0 6 n)))
 (let (($x5072 (= ?x5593 ?x7242)))
 (let ((?x11304 (sc_t 3)))
 (let (($x2531 (bvsle ?x11304 n)))
 (or $x2531 $x5072)))))))
 ))
 (let ((?x11304 (sc_t 3)))
 (let ((?x926 (sc_s 6)))
 (let (($x4711 (= ?x926 ?x11304)))
 (let ((?x6404 (used_gas_t x_0 x_1 x_2 x_SSTORE_0 0)))
 (let ((?x4495 (used_gas_s x_0 x_1 x_2 x_SSTORE_0 0)))
 (let (($x2902 (= ?x4495 ?x6404)))
 (let (($x5657 (forall ((w (_ BitVec 256)) )(let ((?x11145 (storage_t x_0 x_1 x_2 x_SSTORE_0 0 w)))
 (let ((?x4115 (storage_s x_0 x_1 x_2 x_SSTORE_0 0 w)))
 (= ?x4115 ?x11145))))
 ))
 (let (($x56 (exc_halt_t 0)))
 (let (($x57 (exc_halt_s 0)))
 (let (($x58 (= $x57 $x56)))
 (let (($x6928 (forall ((n (_ BitVec 6)) )(let ((?x4392 (stack_t x_0 x_1 x_2 x_SSTORE_0 0 n)))
 (let ((?x2427 (stack_s x_0 x_1 x_2 x_SSTORE_0 0 n)))
 (let (($x11125 (= ?x2427 ?x4392)))
 (let ((?x63 (sc_t 0)))
 (let (($x4912 (bvsle ?x63 n)))
 (or $x4912 $x11125)))))))
 ))
 (let ((?x63 (sc_t 0)))
 (let ((?x72 (sc_s 0)))
 (let (($x73 (= ?x72 ?x63)))
 (let (($x1543 (= $x3614 (or (exc_halt_t 2) (not (bvsle (_ bv0 6) (bvadd (_ bv62 6) (sc_t 2))))))))
 (let (($x10921 (forall ((n (_ BitVec 6)) )(let ((?x4252 (stack_t x_0 x_1 x_2 x_SSTORE_0 2 n)))
 (let ((?x7242 (stack_t x_0 x_1 x_2 x_SSTORE_0 3 n)))
 (let (($x10493 (= ?x7242 ?x4252)))
 (let ((?x6158 (sc_t 2)))
 (let ((?x5327 (bvadd (_ bv62 6) ?x6158)))
 (let (($x7211 (bvsle ?x5327 n)))
 (or $x7211 $x10493))))))))
 ))
 (let ((?x6158 (sc_t 2)))
 (let ((?x5327 (bvadd (_ bv62 6) ?x6158)))
 (let ((?x9814 (stack_t x_0 x_1 x_2 x_SSTORE_0 2 ?x5327)))
 (let (($x1777 (= ?x9814 (_ bv0 256))))
 (let ((?x4024 (bvadd (_ bv63 6) ?x6158)))
 (let ((?x10126 (stack_t x_0 x_1 x_2 x_SSTORE_0 2 ?x4024)))
 (let ((?x3407 (ite (= (storage_t x_0 x_1 x_2 x_SSTORE_0 2 ?x10126) (_ bv0 256)) (ite $x1777 5000 20000) (ite $x1777 (- 10000) 5000))))
 (let ((?x3278 (used_gas_t x_0 x_1 x_2 x_SSTORE_0 2)))
 (let ((?x6487 (used_gas_t x_0 x_1 x_2 x_SSTORE_0 3)))
 (let (($x8244 (forall ((w (_ BitVec 256)) )(let ((?x10631 (storage_t x_0 x_1 x_2 x_SSTORE_0 2 w)))
 (let (($x862 (= w (stack_t x_0 x_1 x_2 x_SSTORE_0 2 (bvadd (_ bv63 6) (sc_t 2))))))
 (let ((?x8951 (ite $x862 (stack_t x_0 x_1 x_2 x_SSTORE_0 2 (bvadd (_ bv62 6) (sc_t 2))) ?x10631)))
 (let ((?x10735 (storage_t x_0 x_1 x_2 x_SSTORE_0 3 w)))
 (= ?x10735 ?x8951))))))
 ))
 (let (($x4045 (exc_halt_t 2)))
 (let (($x5956 (= $x4045 (or (exc_halt_t 1) (not (bvsle (_ bv0 6) (bvadd (_ bv61 6) (sc_t 1))))))))
 (let (($x11265 (forall ((w (_ BitVec 256)) )(let ((?x8952 (storage_t x_0 x_1 x_2 x_SSTORE_0 1 w)))
 (let ((?x10631 (storage_t x_0 x_1 x_2 x_SSTORE_0 2 w)))
 (= ?x10631 ?x8952))))
 ))
 (let (($x4402 (forall ((n (_ BitVec 6)) )(let ((?x2435 (stack_t x_0 x_1 x_2 x_SSTORE_0 1 n)))
 (let ((?x4252 (stack_t x_0 x_1 x_2 x_SSTORE_0 2 n)))
 (let (($x5674 (= ?x4252 ?x2435)))
 (or (bvsle (bvadd (_ bv61 6) (sc_t 1)) n) $x5674)))))
 ))
 (let ((?x7154 (sc_t 1)))
 (let (($x3248 (= ?x6158 ?x7154)))
 (let (($x843 (= ?x3278 (+ 3 (used_gas_t x_0 x_1 x_2 x_SSTORE_0 1)))))
 (let ((?x11261 (bvadd (_ bv63 6) ?x7154)))
 (let ((?x3608 (stack_t x_0 x_1 x_2 x_SSTORE_0 1 ?x11261)))
 (let ((?x495 (bvadd (_ bv61 6) ?x6158)))
 (let ((?x5739 (stack_t x_0 x_1 x_2 x_SSTORE_0 2 ?x495)))
 (let (($x5124 (forall ((w (_ BitVec 256)) )(let ((?x11145 (storage_t x_0 x_1 x_2 x_SSTORE_0 0 w)))
 (let ((?x8952 (storage_t x_0 x_1 x_2 x_SSTORE_0 1 w)))
 (= ?x8952 ?x11145))))
 ))
 (let (($x7029 (forall ((n (_ BitVec 6)) )(let ((?x4392 (stack_t x_0 x_1 x_2 x_SSTORE_0 0 n)))
 (let ((?x2435 (stack_t x_0 x_1 x_2 x_SSTORE_0 1 n)))
 (or (= ?x2435 ?x4392) (bvsle (bvadd (_ bv62 6) (sc_t 0)) n)))))
 ))
 (let (($x606 (= ?x7154 ?x63)))
 (let ((?x3203 (used_gas_t x_0 x_1 x_2 x_SSTORE_0 1)))
 (let (($x11689 (= ?x3203 (+ 3 ?x6404))))
 (let ((?x5841 (bvadd (_ bv63 6) ?x63)))
 (let ((?x9513 (stack_t x_0 x_1 x_2 x_SSTORE_0 0 ?x5841)))
 (let ((?x4452 (bvadd (_ bv62 6) ?x7154)))
 (let ((?x2025 (stack_t x_0 x_1 x_2 x_SSTORE_0 1 ?x4452)))
 (let ((?x5779 (bvadd (_ bv62 6) ?x63)))
 (let ((?x11131 (stack_t x_0 x_1 x_2 x_SSTORE_0 0 ?x5779)))
 (let (($x9849 (= ?x3608 ?x11131)))
 (let (($x3062 (= $x772 (or (exc_halt_s 5) (not (bvsle (_ bv0 6) (bvadd (_ bv63 6) (sc_s 5))))))))
 (let (($x3539 (forall ((w (_ BitVec 256)) )(let ((?x9286 (storage_s x_0 x_1 x_2 x_SSTORE_0 5 w)))
 (let ((?x3143 (storage_s x_0 x_1 x_2 x_SSTORE_0 6 w)))
 (= ?x3143 ?x9286))))
 ))
 (let (($x3515 (forall ((n (_ BitVec 6)) )(let ((?x4319 (sc_s 5)))
 (let ((?x8736 (bvadd (_ bv63 6) ?x4319)))
 (let (($x3064 (bvsle ?x8736 n)))
 (let ((?x3526 (stack_s x_0 x_1 x_2 x_SSTORE_0 5 n)))
 (let ((?x5593 (stack_s x_0 x_1 x_2 x_SSTORE_0 6 n)))
 (let (($x2796 (= ?x5593 ?x3526)))
 (or $x2796 $x3064))))))))
 ))
 (let ((?x4319 (sc_s 5)))
 (let ((?x8736 (bvadd (_ bv63 6) ?x4319)))
 (let (($x5411 (= ?x926 ?x8736)))
 (let ((?x11394 (used_gas_s x_0 x_1 x_2 x_SSTORE_0 6)))
 (let (($x11317 (exc_halt_s 5)))
 (let (($x6722 (= $x11317 (or (exc_halt_s 4) (not (bvsle (_ bv0 6) (bvadd (_ bv63 6) (sc_s 4))))))))
 (let (($x11796 (forall ((w (_ BitVec 256)) )(let ((?x601 (storage_s x_0 x_1 x_2 x_SSTORE_0 4 w)))
 (let ((?x9286 (storage_s x_0 x_1 x_2 x_SSTORE_0 5 w)))
 (= ?x9286 ?x601))))
 ))
 (let (($x10451 (forall ((n (_ BitVec 6)) )(let ((?x4305 (sc_s 4)))
 (let ((?x4799 (bvadd (_ bv63 6) ?x4305)))
 (let (($x5135 (bvsle ?x4799 n)))
 (let ((?x3752 (stack_s x_0 x_1 x_2 x_SSTORE_0 4 n)))
 (let ((?x3526 (stack_s x_0 x_1 x_2 x_SSTORE_0 5 n)))
 (or (= ?x3526 ?x3752) $x5135)))))))
 ))
 (let ((?x4305 (sc_s 4)))
 (let ((?x4799 (bvadd (_ bv63 6) ?x4305)))
 (let (($x4492 (= ?x4319 ?x4799)))
 (let ((?x10013 (used_gas_s x_0 x_1 x_2 x_SSTORE_0 5)))
 (let (($x7172 (exc_halt_s 4)))
 (let (($x372 (= $x7172 (or (exc_halt_s 3) (not (bvsle (_ bv0 6) (bvadd (_ bv61 6) (sc_s 3))))))))
 (let (($x1320 (forall ((w (_ BitVec 256)) )(let ((?x10048 (storage_s x_0 x_1 x_2 x_SSTORE_0 3 w)))
 (let ((?x601 (storage_s x_0 x_1 x_2 x_SSTORE_0 4 w)))
 (= ?x601 ?x10048))))
 ))
 (let (($x518 (forall ((n (_ BitVec 6)) )(let ((?x275 (sc_s 3)))
 (let ((?x2289 (bvadd (_ bv61 6) ?x275)))
 (let (($x11555 (bvsle ?x2289 n)))
 (let ((?x3390 (stack_s x_0 x_1 x_2 x_SSTORE_0 3 n)))
 (let ((?x3752 (stack_s x_0 x_1 x_2 x_SSTORE_0 4 n)))
 (let (($x8032 (= ?x3752 ?x3390)))
 (or $x8032 $x11555))))))))
 ))
 (let ((?x275 (sc_s 3)))
 (let (($x3757 (= ?x4305 ?x275)))
 (let ((?x179 (used_gas_s x_0 x_1 x_2 x_SSTORE_0 4)))
 (let (($x10718 (= ?x179 (+ 3 (used_gas_s x_0 x_1 x_2 x_SSTORE_0 3)))))
 (let ((?x8389 (bvadd (_ bv62 6) ?x275)))
 (let ((?x9495 (stack_s x_0 x_1 x_2 x_SSTORE_0 3 ?x8389)))
 (let ((?x2261 (bvadd (_ bv63 6) ?x275)))
 (let ((?x751 (stack_s x_0 x_1 x_2 x_SSTORE_0 3 ?x2261)))
 (let ((?x2818 (stack_s x_0 x_1 x_2 x_SSTORE_0 4 ?x4799)))
 (let (($x9803 (not (= ((_ extract 6 6) (bvadd (_ bv1 7) (concat (_ bv0 1) (sc_s 2)))) (_ bv0 1)))))
 (let (($x247 (exc_halt_s 2)))
 (let (($x292 (exc_halt_s 3)))
 (let (($x2865 (forall ((w (_ BitVec 256)) )(let ((?x7488 (storage_s x_0 x_1 x_2 x_SSTORE_0 2 w)))
 (let ((?x10048 (storage_s x_0 x_1 x_2 x_SSTORE_0 3 w)))
 (= ?x10048 ?x7488))))
 ))
 (let (($x10882 (forall ((n (_ BitVec 6)) )(let ((?x8410 (stack_s x_0 x_1 x_2 x_SSTORE_0 2 n)))
 (let ((?x3390 (stack_s x_0 x_1 x_2 x_SSTORE_0 3 n)))
 (let (($x2908 (= ?x3390 ?x8410)))
 (or $x2908 (bvsle (bvadd (_ bv63 6) (sc_s 2)) n))))))
 ))
 (let (($x2806 (= ?x275 (bvadd (_ bv1 6) (sc_s 2)))))
 (let ((?x6732 (used_gas_s x_0 x_1 x_2 x_SSTORE_0 3)))
 (let (($x3681 (= ?x6732 (+ 3 (used_gas_s x_0 x_1 x_2 x_SSTORE_0 2)))))
 (let ((?x218 (sc_s 2)))
 (let ((?x453 (bvadd (_ bv63 6) ?x218)))
 (let ((?x10753 (stack_s x_0 x_1 x_2 x_SSTORE_0 2 ?x453)))
 (let (($x7358 (= $x247 (or (exc_halt_s 1) (not (bvsle (_ bv0 6) (bvadd (_ bv62 6) (sc_s 1))))))))
 (let (($x7310 (forall ((n (_ BitVec 6)) )(let ((?x154 (sc_s 1)))
 (let ((?x3159 (bvadd (_ bv62 6) ?x154)))
 (let (($x11944 (bvsle ?x3159 n)))
 (let ((?x10513 (stack_s x_0 x_1 x_2 x_SSTORE_0 1 n)))
 (let ((?x8410 (stack_s x_0 x_1 x_2 x_SSTORE_0 2 n)))
 (let (($x10262 (= ?x8410 ?x10513)))
 (or $x10262 $x11944))))))))
 ))
 (let (($x8033 (= (stack_s x_0 x_1 x_2 x_SSTORE_0 1 (bvadd (_ bv62 6) (sc_s 1))) (_ bv0 256))))
 (let ((?x154 (sc_s 1)))
 (let ((?x11015 (bvadd (_ bv63 6) ?x154)))
 (let ((?x11160 (stack_s x_0 x_1 x_2 x_SSTORE_0 1 ?x11015)))
 (let ((?x4226 (ite (= (storage_s x_0 x_1 x_2 x_SSTORE_0 1 ?x11160) (_ bv0 256)) (ite $x8033 5000 20000) (ite $x8033 (- 10000) 5000))))
 (let ((?x503 (used_gas_s x_0 x_1 x_2 x_SSTORE_0 1)))
 (let ((?x4524 (used_gas_s x_0 x_1 x_2 x_SSTORE_0 2)))
 (let (($x7480 (forall ((w (_ BitVec 256)) )(let ((?x11262 (storage_s x_0 x_1 x_2 x_SSTORE_0 1 w)))
 (let (($x3134 (= w (stack_s x_0 x_1 x_2 x_SSTORE_0 1 (bvadd (_ bv63 6) (sc_s 1))))))
 (let ((?x5208 (ite $x3134 (stack_s x_0 x_1 x_2 x_SSTORE_0 1 (bvadd (_ bv62 6) (sc_s 1))) ?x11262)))
 (let ((?x7488 (storage_s x_0 x_1 x_2 x_SSTORE_0 2 w)))
 (= ?x7488 ?x5208))))))
 ))
 (let (($x7928 (not (bvsle (_ bv0 6) (bvadd (_ bv61 6) ?x72)))))
 (let (($x5280 (not (= ((_ extract 6 6) (bvadd (_ bv1 7) (concat (_ bv0 1) ?x72))) (_ bv0 1)))))
 (let (($x189 (exc_halt_s 1)))
 (let (($x6291 (forall ((w (_ BitVec 256)) )(let ((?x4115 (storage_s x_0 x_1 x_2 x_SSTORE_0 0 w)))
 (let ((?x11262 (storage_s x_0 x_1 x_2 x_SSTORE_0 1 w)))
 (= ?x11262 ?x4115))))
 ))
 (let (($x5137 (forall ((n (_ BitVec 6)) )(let ((?x2427 (stack_s x_0 x_1 x_2 x_SSTORE_0 0 n)))
 (let ((?x10513 (stack_s x_0 x_1 x_2 x_SSTORE_0 1 n)))
 (let (($x9101 (= ?x10513 ?x2427)))
 (let ((?x72 (sc_s 0)))
 (let ((?x6111 (bvadd (_ bv61 6) ?x72)))
 (let (($x3068 (bvsle ?x6111 n)))
 (or $x3068 $x9101))))))))
 ))
 (let (($x3586 (= ?x154 (bvadd (_ bv1 6) ?x72))))
 (let (($x4867 (= (stack_s x_0 x_1 x_2 x_SSTORE_0 1 (bvadd (_ bv63 6) ?x72)) (stack_s x_0 x_1 x_2 x_SSTORE_0 0 (bvadd (_ bv63 6) ?x72)))))
 (let (($x11591 (= (stack_s x_0 x_1 x_2 x_SSTORE_0 1 (bvadd (_ bv62 6) ?x72)) (stack_s x_0 x_1 x_2 x_SSTORE_0 0 (bvadd (_ bv62 6) ?x72)))))
 (let ((?x6111 (bvadd (_ bv61 6) ?x72)))
 (let ((?x10851 (stack_s x_0 x_1 x_2 x_SSTORE_0 0 ?x6111)))
 (let (($x6297 (forall ((w (_ BitVec 256)) )(let (($x3134 (= w (stack_s x_0 x_1 x_2 x_SSTORE_0 1 (bvadd (_ bv63 6) (sc_s 1))))))
 (let ((?x4115 (storage_s x_0 x_1 x_2 x_SSTORE_0 0 w)))
 (= ?x4115 (ite $x3134 x_SSTORE_0 (_ bv0 256))))))
 ))
 (let (($x9019 (= ?x4495 0)))
 (let (($x2084 (not $x57)))
 (let (($x8277 (= (stack_s x_0 x_1 x_2 x_SSTORE_0 0 (_ bv2 6)) x_2)))
 (let (($x3356 (= (stack_s x_0 x_1 x_2 x_SSTORE_0 0 (_ bv1 6)) x_1)))
 (let (($x2338 (= (stack_s x_0 x_1 x_2 x_SSTORE_0 0 (_ bv0 6)) x_0)))
 (let (($x7781 (= ?x72 (_ bv3 6))))
 (and $x7781 $x2338 $x3356 $x8277 $x2084 $x9019 $x6297 (= ?x11160 ?x10851) (= (stack_s x_0 x_1 x_2 x_SSTORE_0 1 ?x6111) ?x10851) $x11591 $x4867 (= ?x503 (+ 3 ?x4495)) $x3586 $x5137 $x6291 (= $x189 (or $x57 $x5280 $x7928)) $x7480 (= ?x4524 (+ ?x503 ?x4226)) (= ?x218 (bvadd (_ bv62 6) ?x154)) $x7310 $x7358 (= ?x751 ?x10753) (= (stack_s x_0 x_1 x_2 x_SSTORE_0 3 ?x453) ?x10753) $x3681 $x2806 $x10882 $x2865 (= $x292 (or $x247 (not (bvsle (_ bv0 6) ?x453)) $x9803)) (= ?x2818 (stack_s x_0 x_1 x_2 x_SSTORE_0 3 (bvadd (_ bv61 6) ?x275))) (= (stack_s x_0 x_1 x_2 x_SSTORE_0 4 (bvadd (_ bv61 6) ?x4305)) ?x751) (= (stack_s x_0 x_1 x_2 x_SSTORE_0 4 (bvadd (_ bv62 6) ?x4305)) ?x9495) $x10718 $x3757 $x518 $x1320 $x372 (= ?x10013 (+ 2 ?x179)) $x4492 $x10451 $x11796 $x6722 (= ?x11394 (+ 2 ?x10013)) $x5411 $x3515 $x3539 $x3062 $x9849 (= ?x2025 ?x9513) $x11689 $x606 $x7029 $x5124 (= (exc_halt_t 1) (or $x56 (not (bvsle (_ bv0 6) ?x5779)))) (= ?x10126 (stack_t x_0 x_1 x_2 x_SSTORE_0 1 (bvadd (_ bv61 6) ?x7154))) (= ?x5739 ?x3608) (= ?x9814 ?x2025) $x843 $x3248 $x4402 $x11265 $x5956 $x8244 (= ?x6487 (+ ?x3278 ?x3407)) (= ?x11304 ?x5327) $x10921 $x1543 $x73 $x6928 $x58 $x5657 $x2902 (not (and $x4711 $x10866 $x10291 $x236))))))))))))))))))))))))))))))))))))))))))))))))))))))))))))))))))))))))))))))))))))))))))))))))))))))))))))))))))))))))))))
 )
(check-sat)
(get-proof)
